p cnf 251 1925
cr 16 15 14 13 12 11 10 9 8 7 6 5 4 3 2 1
c ind 16 15 14 13 12 11 10 9 8 7 0
c ind 6 5 4 3 2 1 0
-46 -48 0
-17 -49 0
-18 -49 0
-19 -49 0
-20 -49 0
-21 -49 0
-22 -49 0
-23 -49 0
-24 -49 0
-25 -49 0
-26 -49 0
-27 -49 0
-28 -49 0
-29 -49 0
-30 -49 0
-31 -49 0
-32 -49 0
-33 -49 0
-34 -49 0
-35 -49 0
-36 -49 0
-37 -49 0
-38 -49 0
-39 -49 0
-40 -49 0
-41 -49 0
-42 -49 0
-43 -49 0
-44 -49 0
-45 -49 0
-46 -49 0
2 -49 0
-45 -50 0
-17 -52 0
-18 -52 0
-19 -52 0
-20 -52 0
-21 -52 0
-22 -52 0
-23 -52 0
-24 -52 0
-25 -52 0
-26 -52 0
-27 -52 0
-28 -52 0
-29 -52 0
-30 -52 0
-31 -52 0
-32 -52 0
-33 -52 0
-34 -52 0
-35 -52 0
-36 -52 0
-37 -52 0
-38 -52 0
-39 -52 0
-40 -52 0
-41 -52 0
-42 -52 0
-43 -52 0
-44 -52 0
-45 -52 0
46 -52 0
3 -52 0
45 53 0
-46 -55 -3 0
46 -55 3 0
-3 55 46 0
55 -46 3 0
-17 -56 0
-18 -56 0
-19 -56 0
-20 -56 0
-21 -56 0
-22 -56 0
-23 -56 0
-24 -56 0
-25 -56 0
-26 -56 0
-27 -56 0
-28 -56 0
-29 -56 0
-30 -56 0
-31 -56 0
-32 -56 0
-33 -56 0
-34 -56 0
-35 -56 0
-36 -56 0
-37 -56 0
-38 -56 0
-39 -56 0
-40 -56 0
-41 -56 0
-42 -56 0
-43 -56 0
-44 -56 0
45 -56 0
-55 -56 0
4 -56 0
44 57 0
-46 -60 -3 0
-60 46 3 0
-3 60 46 0
60 -46 3 0
-2 -61 0
47 -61 0
-47 2 61 0
-17 -62 0
-18 -62 0
-19 -62 0
-20 -62 0
-21 -62 0
-22 -62 0
-23 -62 0
-24 -62 0
-25 -62 0
-26 -62 0
-27 -62 0
-28 -62 0
-29 -62 0
-30 -62 0
-31 -62 0
-32 -62 0
-33 -62 0
-34 -62 0
-35 -62 0
-36 -62 0
-37 -62 0
-38 -62 0
-39 -62 0
-40 -62 0
-41 -62 0
-42 -62 0
-43 -62 0
44 -62 0
-60 -62 0
-61 -62 0
5 -62 0
43 63 0
-45 -67 -4 0
-67 45 4 0
67 45 -4 0
67 -45 4 0
-46 -68 -3 0
46 -68 3 0
68 -3 46 0
-46 68 3 0
-2 -69 0
-69 47 0
-47 69 2 0
-17 -70 0
-18 -70 0
-19 -70 0
-20 -70 0
-21 -70 0
-22 -70 0
-23 -70 0
-24 -70 0
-25 -70 0
-26 -70 0
-27 -70 0
-28 -70 0
-29 -70 0
-30 -70 0
-31 -70 0
-32 -70 0
-33 -70 0
-34 -70 0
-35 -70 0
-36 -70 0
-37 -70 0
-38 -70 0
-39 -70 0
-40 -70 0
-41 -70 0
-42 -70 0
43 -70 0
-67 -70 0
-68 -70 0
-69 -70 0
6 -70 0
-41 -71 0
-76 -6 -43 0
-76 6 43 0
43 76 -6 0
-43 76 6 0
-77 -44 -5 0
5 -77 44 0
77 44 -5 0
-44 77 5 0
-45 -78 -4 0
-78 45 4 0
45 78 -4 0
78 -45 4 0
-17 -79 0
-18 -79 0
-19 -79 0
-20 -79 0
-21 -79 0
-22 -79 0
-23 -79 0
-24 -79 0
-25 -79 0
-26 -79 0
-27 -79 0
-28 -79 0
-29 -79 0
-30 -79 0
-31 -79 0
-32 -79 0
-33 -79 0
-34 -79 0
-35 -79 0
-36 -79 0
-37 -79 0
-38 -79 0
-39 -79 0
-40 -79 0
-41 -79 0
42 -79 0
-76 -79 0
-77 -79 0
-78 -79 0
7 -79 0
41 80 0
-42 -86 -7 0
-86 7 42 0
42 86 -7 0
86 7 -42 0
-87 -6 -43 0
6 -87 43 0
43 87 -6 0
6 87 -43 0
-44 -88 -5 0
-88 5 44 0
88 44 -5 0
88 -44 5 0
-45 -89 -4 0
-89 45 4 0
45 89 -4 0
-45 89 4 0
-17 -90 0
-18 -90 0
-19 -90 0
-20 -90 0
-21 -90 0
-22 -90 0
-23 -90 0
-24 -90 0
-25 -90 0
-26 -90 0
-27 -90 0
-28 -90 0
-29 -90 0
-30 -90 0
-31 -90 0
-32 -90 0
-33 -90 0
-34 -90 0
-35 -90 0
-36 -90 0
-37 -90 0
-38 -90 0
-39 -90 0
-40 -90 0
41 -90 0
-86 -90 0
-87 -90 0
-88 -90 0
-89 -90 0
8 -90 0
-38 -91 0
-41 -98 -8 0
8 -98 41 0
41 98 -8 0
98 -41 8 0
-42 -99 -7 0
7 -99 42 0
99 42 -7 0
99 -42 7 0
-6 -100 -43 0
6 -100 43 0
100 43 -6 0
6 100 -43 0
-101 -45 -4 0
-101 45 4 0
45 101 -4 0
101 -45 4 0
-102 -2 0
47 -102 0
2 -47 102 0
-17 -103 0
-18 -103 0
-19 -103 0
-20 -103 0
-21 -103 0
-22 -103 0
-23 -103 0
-24 -103 0
-25 -103 0
-26 -103 0
-27 -103 0
-28 -103 0
-29 -103 0
-30 -103 0
-31 -103 0
-32 -103 0
-33 -103 0
-34 -103 0
-35 -103 0
-36 -103 0
-37 -103 0
-38 -103 0
-39 -103 0
40 -103 0
-98 -103 0
-99 -103 0
-100 -103 0
-101 -103 0
-102 -103 0
9 -103 0
39 104 0
-41 -112 -8 0
8 -112 41 0
112 41 -8 0
112 8 -41 0
-42 -113 -7 0
7 -113 42 0
113 42 -7 0
-42 113 7 0
-114 -6 -43 0
6 -114 43 0
43 114 -6 0
6 114 -43 0
-115 -44 -5 0
5 -115 44 0
44 115 -5 0
115 5 -44 0
-116 -45 -4 0
45 -116 4 0
45 116 -4 0
-45 116 4 0
-117 -46 -3 0
-117 46 3 0
117 -3 46 0
117 -46 3 0
-118 -2 0
47 -118 0
2 -47 118 0
-17 -119 0
-18 -119 0
-19 -119 0
-20 -119 0
-21 -119 0
-22 -119 0
-23 -119 0
-24 -119 0
-25 -119 0
-26 -119 0
-27 -119 0
-28 -119 0
-29 -119 0
-30 -119 0
-31 -119 0
-32 -119 0
-33 -119 0
-34 -119 0
-35 -119 0
-36 -119 0
-37 -119 0
-38 -119 0
39 -119 0
-112 -119 0
-113 -119 0
-114 -119 0
-115 -119 0
-116 -119 0
-117 -119 0
-118 -119 0
10 -119 0
-37 -120 0
-39 -129 -10 0
39 -129 10 0
39 129 -10 0
-39 129 10 0
-40 -130 -9 0
-130 9 40 0
40 130 -9 0
130 -40 9 0
-41 -131 -8 0
-131 8 41 0
131 41 -8 0
8 131 -41 0
-132 -44 -5 0
-132 5 44 0
44 132 -5 0
132 -44 5 0
-45 -133 -4 0
45 -133 4 0
133 45 -4 0
-45 133 4 0
-134 -46 -3 0
-134 46 3 0
-3 134 46 0
-46 134 3 0
-135 -2 0
-135 47 0
-47 135 2 0
-17 -136 0
-18 -136 0
-19 -136 0
-20 -136 0
-21 -136 0
-22 -136 0
-23 -136 0
-24 -136 0
-25 -136 0
-26 -136 0
-27 -136 0
-28 -136 0
-29 -136 0
-30 -136 0
-31 -136 0
-32 -136 0
-33 -136 0
-34 -136 0
-35 -136 0
-36 -136 0
-37 -136 0
38 -136 0
-129 -136 0
-130 -136 0
-131 -136 0
-132 -136 0
-133 -136 0
-134 -136 0
-135 -136 0
11 -136 0
37 137 0
-38 -147 -11 0
38 -147 11 0
147 38 -11 0
-38 147 11 0
-39 -148 -10 0
39 -148 10 0
148 39 -10 0
-39 148 10 0
-149 -40 -9 0
9 -149 40 0
40 149 -9 0
-40 149 9 0
-150 -41 -8 0
8 -150 41 0
41 150 -8 0
150 8 -41 0
-44 -151 -5 0
-151 5 44 0
44 151 -5 0
151 -44 5 0
-152 -45 -4 0
-152 45 4 0
152 45 -4 0
-45 152 4 0
-46 -153 -3 0
-153 46 3 0
153 -3 46 0
-46 153 3 0
-154 -2 0
-2 47 0
-47 2 154 0
-17 -155 0
-18 -155 0
-19 -155 0
-20 -155 0
-21 -155 0
-22 -155 0
-23 -155 0
-24 -155 0
-25 -155 0
-26 -155 0
-27 -155 0
-28 -155 0
-29 -155 0
-30 -155 0
-31 -155 0
-32 -155 0
-33 -155 0
-34 -155 0
-35 -155 0
-36 -155 0
37 -155 0
-147 -155 0
-148 -155 0
-149 -155 0
-150 -155 0
-151 -155 0
-152 -155 0
-153 -155 0
-154 -155 0
12 -155 0
-34 -156 0
-12 -167 -37 0
37 -167 12 0
37 -12 167 0
167 -37 12 0
-38 -11 -168 0
-168 38 11 0
-11 38 168 0
168 -38 11 0
-41 -169 -8 0
8 -169 41 0
41 169 -8 0
-41 8 169 0
-170 -42 -7 0
-170 7 42 0
-7 42 170 0
-42 7 170 0
-43 -171 -6 0
-171 6 43 0
43 -6 171 0
-43 6 171 0
-44 -172 -5 0
5 -172 44 0
172 44 -5 0
5 -44 172 0
-45 -173 -4 0
-173 45 4 0
-4 45 173 0
-45 173 4 0
-46 -3 -174 0
3 46 -174 0
46 -3 174 0
-46 3 174 0
-175 -2 0
47 -175 0
-47 2 175 0
-17 -176 0
-18 -176 0
-19 -176 0
-20 -176 0
-21 -176 0
-22 -176 0
-23 -176 0
-24 -176 0
-25 -176 0
-26 -176 0
-27 -176 0
-28 -176 0
-29 -176 0
-30 -176 0
-31 -176 0
-32 -176 0
-33 -176 0
-34 -176 0
-35 -176 0
36 -176 0
-167 -176 0
-168 -176 0
-169 -176 0
-170 -176 0
-171 -176 0
-172 -176 0
-173 -176 0
-174 -176 0
-175 -176 0
13 -176 0
-33 -177 0
-12 -189 -37 0
37 -189 12 0
189 -12 37 0
189 -37 12 0
-39 -190 -10 0
39 -190 10 0
39 190 -10 0
-39 190 10 0
-191 -40 -9 0
9 -191 40 0
191 40 -9 0
-40 191 9 0
-192 -41 -8 0
8 -192 41 0
41 192 -8 0
8 192 -41 0
-193 -42 -7 0
7 -193 42 0
193 42 -7 0
-42 193 7 0
-6 -194 -43 0
-194 6 43 0
194 43 -6 0
194 -43 6 0
-195 -44 -5 0
5 -195 44 0
44 195 -5 0
5 195 -44 0
-196 -45 -4 0
45 -196 4 0
45 196 -4 0
-45 196 4 0
-197 -46 -3 0
-197 46 3 0
-3 197 46 0
-46 197 3 0
-198 -2 0
47 -198 0
198 -47 2 0
-17 -199 0
-18 -199 0
-19 -199 0
-20 -199 0
-21 -199 0
-22 -199 0
-23 -199 0
-24 -199 0
-25 -199 0
-26 -199 0
-27 -199 0
-28 -199 0
-29 -199 0
-30 -199 0
-31 -199 0
-32 -199 0
-33 -199 0
-34 -199 0
35 -199 0
-189 -199 0
-190 -199 0
-191 -199 0
-192 -199 0
-193 -199 0
-194 -199 0
-195 -199 0
-196 -199 0
-197 -199 0
-198 -199 0
14 -199 0
-32 -200 0
-213 -35 -14 0
14 -213 35 0
-14 213 35 0
213 -35 14 0
-36 -214 -13 0
13 -214 36 0
214 36 -13 0
214 13 -36 0
-215 -12 -37 0
37 -215 12 0
-12 215 37 0
-37 215 12 0
-38 -216 -11 0
38 -216 11 0
216 38 -11 0
-38 216 11 0
-217 -39 -10 0
39 -217 10 0
217 39 -10 0
-39 217 10 0
-218 -42 -7 0
7 -218 42 0
218 42 -7 0
218 7 -42 0
-6 -219 -43 0
6 -219 43 0
43 219 -6 0
219 6 -43 0
-44 -220 -5 0
5 -220 44 0
44 220 -5 0
5 220 -44 0
-221 -45 -4 0
45 -221 4 0
45 221 -4 0
-45 221 4 0
-46 -222 -3 0
3 -222 46 0
-3 222 46 0
222 -46 3 0
-223 -2 0
47 -223 0
-47 223 2 0
-17 -224 0
-18 -224 0
-19 -224 0
-20 -224 0
-21 -224 0
-22 -224 0
-23 -224 0
-24 -224 0
-25 -224 0
-26 -224 0
-27 -224 0
-28 -224 0
-29 -224 0
-30 -224 0
-31 -224 0
-32 -224 0
-33 -224 0
34 -224 0
-213 -224 0
-214 -224 0
-215 -224 0
-216 -224 0
-217 -224 0
-218 -224 0
-219 -224 0
-220 -224 0
-221 -224 0
-222 -224 0
-223 -224 0
15 -224 0
-32 -225 0
-239 -34 -15 0
15 -239 34 0
239 -15 34 0
15 239 -34 0
-240 -36 -13 0
13 -240 36 0
36 240 -13 0
240 13 -36 0
-241 -12 -37 0
37 -241 12 0
-12 241 37 0
241 -37 12 0
-38 -242 -11 0
38 -242 11 0
242 -11 38 0
-38 242 11 0
-243 -40 -9 0
-243 9 40 0
243 40 -9 0
243 -40 9 0
-41 -244 -8 0
8 -244 41 0
244 41 -8 0
244 8 -41 0
-245 -42 -7 0
-245 7 42 0
42 245 -7 0
245 -42 7 0
-6 -246 -43 0
6 -246 43 0
246 43 -6 0
246 6 -43 0
-247 -44 -5 0
5 -247 44 0
44 247 -5 0
5 -44 247 0
-248 -45 -4 0
-248 45 4 0
45 248 -4 0
248 -45 4 0
-249 -46 -3 0
-249 46 3 0
249 -3 46 0
249 -46 3 0
-2 -250 0
-250 47 0
250 -47 2 0
-17 -251 0
-18 -251 0
-19 -251 0
-20 -251 0
-21 -251 0
-22 -251 0
-23 -251 0
-24 -251 0
-25 -251 0
-26 -251 0
-27 -251 0
-28 -251 0
-29 -251 0
-30 -251 0
-31 -251 0
-32 -251 0
33 -251 0
-239 -251 0
-240 -251 0
-241 -251 0
-242 -251 0
-243 -251 0
-244 -251 0
-245 -251 0
-246 -251 0
-247 -251 0
-248 -251 0
-249 -251 0
-250 -251 0
16 -251 0
44 109 -5 0
-106 107 42 0
108 -107 -6 0
106 -105 41 0
45 110 -4 0
238 -3 46 0
43 82 -6 0
105 40 -104 0
236 44 -5 0
-236 237 -4 0
-104 -39 -38 0
41 207 -8 0
234 42 -7 0
-44 -57 -43 0
44 95 -5 0
233 41 -8 0
232 40 -9 0
-82 83 -5 0
-207 208 -7 0
39 231 -10 0
230 -11 38 0
229 -12 -228 0
45 58 -4 0
36 228 -13 0
-83 84 -4 0
-226 227 -14 0
-177 -32 0
-225 -31 0
-210 211 45 0
-63 -42 -43 0
-96 97 46 0
46 -3 59 0
64 -63 -5 0
212 -211 46 0
65 -64 -4 0
-3 66 46 0
-120 -36 0
121 39 -10 0
-50 -44 0
122 40 -9 0
41 123 -8 0
-123 124 -7 0
125 -124 -6 0
-125 126 -5 0
45 127 -4 0
128 -3 46 0
183 -182 -8 0
39 205 -10 0
-92 93 42 0
184 -183 42 0
203 -12 37 0
186 44 -5 0
-71 -40 0
45 187 -4 0
43 185 -6 0
-48 -45 0
-71 -39 0
139 39 -138 0
-91 -37 0
140 40 -9 0
-48 -44 0
142 42 -7 0
73 44 -5 0
143 -142 -6 0
144 44 -5 0
145 45 -4 0
38 138 -11 0
-73 74 45 0
146 -145 -3 0
-74 75 46 0
-156 -33 0
-11 158 38 0
159 39 -10 0
160 -159 -9 0
161 -160 -8 0
54 -3 46 0
162 42 -7 0
-162 163 -6 0
-163 164 44 0
165 -164 -4 0
-165 166 -3 0
42 81 -7 0
-156 -32 0
-3 46 111 0
-140 141 41 0
72 43 -6 0
-200 -31 0
188 -187 -3 0
-71 -38 0
-71 -37 0
-71 -36 0
36 202 -13 0
204 -203 38 0
-3 -84 85 0
182 40 -181 0
181 39 -180 0
-50 -43 0
-50 -42 0
-179 180 38 0
-120 -35 0
179 -12 -178 0
-41 -63 -43 0
-63 -40 -43 0
-39 -63 -43 0
-225 -30 0
-225 -29 0
-177 -31 0
-177 -30 0
-177 -29 0
-177 -28 0
45 96 -4 0
-209 210 -5 0
209 -208 -6 0
235 -234 -6 0
94 -93 43 0
40 206 -9 0
-37 -137 -36 0
-91 -36 0
-91 -35 0
-199 38 -11 0
-38 -199 11 0
-35 -137 -37 0
-34 -137 -37 0
-137 -33 -37 0
-32 -137 -37 0
-251 -14 35 0
-251 -35 14 0
-9 -119 40 0
-40 -119 9 0
-31 -137 -37 0
-137 -30 -37 0
-29 -137 -37 0
-28 -137 -37 0
-137 -27 -37 0
-137 -26 -37 0
-25 -137 -37 0
-24 -137 -37 0
-143 144 -5 0
-103 -3 46 0
-46 -103 3 0
110 -109 -4 0
-224 40 -9 0
-40 -224 9 0
110 -109 45 0
-45 -110 4 0
109 -110 4 0
109 -110 -45 0
65 -64 45 0
65 45 -4 0
-45 -65 4 0
64 -65 4 0
-65 64 -45 0
44 -70 -5 0
-70 5 -44 0
122 40 -121 0
125 -124 43 0
-227 228 -13 0
-12 229 37 0
41 161 -8 0
128 -127 46 0
-125 126 44 0
-108 109 44 0
-136 -7 42 0
-136 7 -42 0
58 -4 -57 0
-52 -47 2 0
238 -237 -3 0
40 105 -9 0
45 237 -4 0
45 -62 -4 0
-62 -45 4 0
41 106 -8 0
208 42 -7 0
-235 236 -5 0
-81 82 -6 0
44 83 -5 0
42 107 -7 0
233 -232 -8 0
-231 232 -9 0
-233 234 -7 0
-94 95 -5 0
-53 54 46 0
-104 -39 -37 0
-39 -104 -36 0
-35 -104 -39 0
-34 -39 -104 0
-229 230 -11 0
-1 20 -47 17 21 22 23 24 25 26 27 28 29 30 31 32 19 18 35 34 36 33 39 40 37 38 42 43 46 41 44 45 49 0
46 17 18 19 20 21 22 23 24 25 26 27 28 29 30 31 32 33 34 35 36 39 38 37 40 41 42 43 44 45 1 -47 49 0
127 -126 45 0
-2 51 46 0
47 51 46 0
51 -50 -2 0
51 -50 47 0
2 -47 -51 0
2 -46 50 -51 0
-47 -46 50 -51 0
-12 157 37 0
-37 -157 12 0
227 -14 35 0
123 -122 41 0
66 -65 -3 0
-121 -39 10 0
-65 66 46 0
-46 -66 3 0
-66 65 3 0
65 -66 -46 0
109 -108 -5 0
5 -109 -44 0
-44 -109 108 0
108 -109 5 0
43 108 -6 0
73 -72 44 0
145 -144 45 0
142 -141 42 0
-144 145 -4 0
-45 -145 4 0
-145 144 -45 0
144 -145 4 0
-141 142 -7 0
-142 7 -42 0
-142 141 -42 0
-142 141 7 0
40 206 -205 0
-155 -7 42 0
-42 -155 7 0
139 39 -10 0
35 201 -14 0
-201 -35 14 0
139 -138 -10 0
-139 138 10 0
-139 -39 10 0
-39 -139 138 0
-3 -58 59 0
46 -58 59 0
-46 -59 3 0
58 -59 3 0
-59 58 -46 0
184 42 -7 0
-3 -90 46 0
-90 -46 3 0
-50 -41 0
-50 -40 0
-50 -39 0
-50 -38 0
158 -157 38 0
207 -206 -8 0
-139 140 -9 0
160 40 -159 0
40 140 -139 0
9 -40 -140 0
-140 9 139 0
-140 -40 139 0
179 -12 37 0
212 -3 46 0
212 -211 -3 0
211 -212 3 0
-46 -212 3 0
-212 211 -46 0
143 43 -6 0
144 -143 44 0
5 -144 -44 0
-144 143 5 0
-144 -44 143 0
231 -230 -10 0
39 181 -10 0
-41 -40 -80 0
-39 -41 -80 0
-41 -80 -38 0
-41 -37 -80 0
-80 -41 -36 0
-41 -35 -80 0
-120 -34 0
-120 -33 0
-120 -32 0
-120 -31 0
-120 -30 0
-120 -29 0
81 -7 -80 0
45 211 -4 0
42 81 -80 0
-42 7 -81 0
80 7 -81 0
-42 80 -81 0
-179 180 -11 0
124 42 -7 0
84 45 -4 0
-123 124 42 0
-124 7 -42 0
-124 123 7 0
-124 123 -42 0
-200 -30 0
-200 -29 0
75 -3 46 0
-3 97 46 0
-176 39 -10 0
-39 -176 10 0
187 -186 -4 0
45 165 -4 0
-74 75 -3 0
-75 74 3 0
-75 -46 3 0
74 -75 -46 0
54 -53 -3 0
3 -46 -54 0
53 -46 -54 0
3 53 -54 0
-229 230 38 0
-230 -38 11 0
229 -230 11 0
-230 229 -38 0
229 37 -228 0
-37 -229 12 0
228 -229 12 0
-229 228 -37 0
127 -126 -4 0
-45 -127 4 0
126 -127 -45 0
126 -127 4 0
43 94 -6 0
235 -234 43 0
-165 166 46 0
82 43 -81 0
-82 -43 6 0
6 -82 81 0
81 -82 -43 0
210 -209 44 0
-57 -44 -42 0
-44 -57 -41 0
39 231 -230 0
-39 -231 10 0
230 -231 10 0
-231 -39 230 0
209 43 -6 0
94 -93 -6 0
-94 93 6 0
-94 -43 6 0
-94 93 -43 0
125 43 -6 0
-43 -125 6 0
-125 124 6 0
-125 124 -43 0
185 -184 43 0
-185 186 -5 0
96 -95 45 0
158 -157 -11 0
-38 -158 11 0
157 -158 -38 0
157 -158 11 0
-182 183 41 0
123 -122 -8 0
-123 8 -41 0
-123 122 -41 0
-123 122 8 0
203 -12 -202 0
-158 159 -10 0
-72 6 -43 0
234 -233 42 0
7 -234 -42 0
-234 233 7 0
-234 233 -42 0
-92 93 -7 0
-232 233 41 0
-233 -41 8 0
232 -233 8 0
-233 232 -41 0
-82 83 44 0
-83 -44 5 0
-83 82 5 0
-44 -83 82 0
227 -226 35 0
-35 -227 14 0
226 -227 14 0
-227 -35 226 0
41 92 -8 0
-92 8 -41 0
44 64 -5 0
-156 -31 0
-156 -30 0
128 -127 -3 0
3 -46 -128 0
-46 127 -128 0
127 3 -128 0
207 -206 41 0
-41 -207 8 0
-207 206 8 0
206 -207 -41 0
45 58 -57 0
-58 -45 4 0
57 -58 4 0
57 -58 -45 0
-225 -28 0
-225 -27 0
41 141 -8 0
160 40 -9 0
-40 -160 9 0
9 -160 159 0
-160 -40 159 0
46 -84 85 0
-236 237 45 0
-237 -45 4 0
-237 236 4 0
236 -237 -45 0
74 45 -4 0
-11 204 38 0
-3 -110 111 0
238 -237 46 0
-46 -238 3 0
-238 237 3 0
237 -238 -46 0
-72 73 -5 0
-73 -44 5 0
-73 -44 72 0
-73 72 5 0
44 126 -5 0
-44 -126 5 0
-126 125 5 0
-126 -44 125 0
-201 202 -13 0
164 44 -5 0
187 -186 45 0
-45 -187 4 0
-187 186 4 0
186 -187 -45 0
188 -3 46 0
-94 95 44 0
-95 -44 5 0
-95 94 5 0
-44 -95 94 0
-180 181 -10 0
-181 180 10 0
-39 -181 10 0
-181 -39 180 0
36 178 -13 0
-178 13 -36 0
143 -142 43 0
6 -143 -43 0
-143 142 6 0
142 -143 -43 0
37 179 -178 0
-179 -37 12 0
178 -179 12 0
-179 178 -37 0
-163 164 -5 0
163 -164 5 0
-164 -44 5 0
-164 -44 163 0
188 -187 46 0
-46 -188 3 0
-188 187 3 0
-188 187 -46 0
-107 108 43 0
6 -108 -43 0
107 -108 6 0
107 -108 -43 0
-210 211 -4 0
-211 210 4 0
-211 -45 4 0
210 -211 -45 0
36 202 -201 0
-202 13 -36 0
-202 13 201 0
-202 201 -36 0
-203 204 -11 0
203 -204 11 0
-204 -38 11 0
-204 203 -38 0
-73 74 -4 0
73 -74 4 0
-74 -45 4 0
73 -74 -45 0
105 -104 -9 0
104 -105 9 0
-105 -40 9 0
104 -105 -40 0
-204 205 -10 0
-137 138 38 0
141 -140 -8 0
-141 140 8 0
-41 -141 8 0
-141 140 -41 0
138 -137 -11 0
-138 -38 11 0
-138 137 -38 0
137 -138 11 0
205 39 -204 0
-39 -205 10 0
-205 204 10 0
-205 -39 204 0
-145 146 46 0
163 -162 43 0
-207 208 42 0
-208 -42 7 0
207 -208 7 0
-208 207 -42 0
163 43 -6 0
6 -163 -43 0
162 -163 6 0
162 -163 -43 0
146 -3 46 0
-46 3 -146 0
3 145 -146 0
145 -46 -146 0
64 -63 44 0
-44 -64 5 0
-64 5 63 0
-64 -44 63 0
-161 162 42 0
-181 182 -9 0
182 40 -9 0
-182 -40 9 0
-182 9 181 0
-182 -40 181 0
-161 162 -7 0
7 -162 -42 0
-162 161 -42 0
-162 161 7 0
-121 122 -9 0
-122 -40 9 0
-40 -122 121 0
-122 9 121 0
42 93 -7 0
-93 7 -42 0
-93 92 7 0
-93 92 -42 0
38 180 -11 0
-38 -180 11 0
179 -180 11 0
179 -180 -38 0
-53 -44 -45 0
-53 -45 -43 0
236 -235 44 0
-44 -236 5 0
235 -236 5 0
-236 -44 235 0
-3 166 46 0
-166 -46 3 0
165 -166 3 0
-166 165 -46 0
232 40 -231 0
-40 -232 9 0
-232 9 231 0
-232 -40 231 0
41 183 -8 0
-183 8 -41 0
-183 182 8 0
-183 182 -41 0
184 -183 -7 0
183 -184 7 0
7 -184 -42 0
-184 183 -42 0
107 -106 -7 0
-107 106 7 0
-42 -107 7 0
-107 106 -42 0
96 -95 -4 0
-45 -96 4 0
95 -96 -45 0
-96 95 4 0
185 -184 -6 0
-185 6 -43 0
-185 184 -43 0
-185 184 6 0
-185 186 44 0
-186 -44 5 0
-186 185 5 0
-186 -44 185 0
159 39 -158 0
-159 -39 10 0
-159 158 10 0
-159 -39 158 0
-208 209 43 0
-209 6 -43 0
208 -209 6 0
-209 208 -43 0
228 -227 36 0
-228 13 -36 0
-228 13 227 0
-228 227 -36 0
97 -96 -3 0
-97 96 3 0
-97 -46 3 0
96 -97 -46 0
37 203 -202 0
-203 -37 12 0
-203 202 12 0
202 -203 -37 0
44 210 -5 0
-210 -44 5 0
-210 209 5 0
-210 -44 209 0
-110 46 111 0
3 -46 -111 0
110 3 -111 0
110 -46 -111 0
-3 46 85 0
-46 -85 3 0
-85 84 3 0
-85 84 -46 0
235 43 -6 0
6 -235 -43 0
234 -235 6 0
234 -235 -43 0
34 226 -15 0
15 -226 -34 0
106 -105 -8 0
-106 105 8 0
8 -106 -41 0
-106 105 -41 0
-205 206 -9 0
-206 -40 9 0
-206 -40 205 0
9 -206 205 0
-83 84 45 0
-45 -84 4 0
-84 83 4 0
-84 83 -45 0
-160 161 41 0
-161 -41 8 0
-161 160 8 0
160 -161 -41 0
-164 165 45 0
-165 -45 4 0
164 -165 4 0
-165 164 -45 0
-13 -199 36 0
13 -199 -36 0
18 -13 -38 20 21 22 23 24 25 26 27 28 29 30 31 32 19 17 33 34 -36 -35 -11 199 197 195 196 194 190 189 193 192 191 198 0
18 34 13 20 21 22 23 24 25 26 27 28 29 30 31 32 19 17 33 36 -38 -35 -11 199 197 195 196 194 190 189 193 192 191 198 0
18 -13 38 20 21 22 23 24 25 26 27 28 29 30 31 32 19 17 33 34 -36 -35 11 199 197 195 196 194 190 189 193 192 191 198 0
18 34 13 20 21 22 23 24 25 26 27 28 29 30 31 32 19 17 33 36 38 -35 11 199 197 195 196 194 190 189 193 192 191 198 0
-224 41 -8 0
8 -224 -41 0
-41 -8 18 20 21 22 23 24 25 26 27 28 29 30 31 32 19 17 33 -40 -34 -9 224 218 219 220 221 222 214 213 217 216 215 223 0
33 8 18 20 21 22 23 24 25 26 27 28 29 30 31 32 19 17 41 -40 -34 -9 224 218 219 220 221 222 214 213 217 216 215 223 0
-41 -8 18 20 21 22 23 24 25 26 27 28 29 30 31 32 19 17 33 40 -34 9 224 218 219 220 221 222 214 213 217 216 215 223 0
40 8 18 20 21 22 23 24 25 26 27 28 29 30 31 32 19 17 33 41 -34 9 224 218 219 220 221 222 214 213 217 216 215 223 0
44 -103 -5 0
5 -103 -44 0
-46 -44 20 19 21 22 23 24 25 26 27 28 29 30 31 32 18 17 35 33 39 34 36 37 -5 -40 -3 103 98 38 101 100 99 102 0
-46 19 20 38 21 22 23 24 25 26 27 28 29 30 31 32 18 17 35 33 39 34 36 37 5 -40 -3 103 98 44 101 100 99 102 0
46 -44 20 19 21 22 23 24 25 26 27 28 29 30 31 32 18 17 35 33 39 34 36 37 -5 -40 3 103 98 38 101 100 99 102 0
46 19 20 38 21 22 23 24 25 26 27 28 29 30 31 32 18 17 35 33 39 34 36 37 5 -40 3 103 98 44 101 100 99 102 0
-6 -155 43 0
-43 -155 6 0
-6 18 -43 20 21 22 23 24 25 26 27 28 29 30 31 32 19 17 33 34 35 36 -37 -42 149 -7 155 153 148 147 152 151 150 154 0
18 6 20 36 21 22 23 24 25 26 27 28 29 30 31 32 19 17 33 34 35 43 -37 -42 149 -7 155 153 148 147 152 151 150 154 0
-6 42 -43 20 21 22 23 24 25 26 27 28 29 30 31 32 19 17 18 34 35 33 36 -37 149 7 155 153 148 147 152 151 150 154 0
42 6 20 18 21 22 23 24 25 26 27 28 29 30 31 32 19 17 33 34 35 36 43 -37 149 7 155 153 148 147 152 151 150 154 0
-6 -136 43 0
-43 -136 6 0
-6 -43 19 20 21 22 23 24 25 26 27 28 29 30 31 32 18 17 35 33 36 34 37 -42 -38 -7 136 134 130 129 133 132 131 135 0
18 6 19 20 21 22 23 24 25 26 27 28 29 30 31 32 17 34 35 33 36 37 43 -42 -38 -7 136 134 130 129 133 132 131 135 0
-6 -43 19 20 21 22 23 24 25 26 27 28 29 30 31 32 18 17 35 33 36 34 37 42 -38 7 136 134 130 129 133 132 131 135 0
42 6 19 20 21 22 23 24 25 26 27 28 29 30 31 32 18 17 35 33 36 34 37 43 -38 7 136 134 130 129 133 132 131 135 0
-41 -46 20 19 21 22 23 24 25 26 27 28 29 30 31 32 18 17 35 33 39 34 36 37 40 -2 -3 90 38 89 88 87 86 0
-46 -41 20 19 21 22 23 24 25 26 27 28 29 30 31 32 18 17 35 33 39 34 36 37 40 47 -3 90 38 89 88 87 86 0
-41 46 20 19 21 22 23 24 25 26 27 28 29 30 31 32 18 17 35 33 39 34 36 37 40 -2 3 90 38 89 88 87 86 0
46 -41 20 19 21 22 23 24 25 26 27 28 29 30 31 32 18 17 35 33 39 34 36 37 40 47 3 90 38 89 88 87 86 0
-251 39 -10 0
-39 -251 10 0
20 -35 18 -10 21 22 23 24 25 26 27 28 29 30 31 32 19 17 -33 -14 251 -39 244 245 246 247 248 249 239 243 242 241 240 250 0
10 18 20 -35 21 22 23 24 25 26 27 28 29 30 31 32 19 17 -33 -14 251 39 244 245 246 247 248 249 239 243 242 241 240 250 0
20 35 18 -10 21 22 23 24 25 26 27 28 29 30 31 32 19 17 -33 14 251 -39 244 245 246 247 248 249 239 243 242 241 240 250 0
10 35 20 39 21 22 23 24 25 26 27 28 29 30 31 32 19 17 -33 14 251 18 244 245 246 247 248 249 239 243 242 241 240 250 0
19 -1 113 20 21 22 23 24 25 26 27 28 29 30 31 32 18 17 35 33 -39 34 36 37 38 -40 -9 119 117 112 116 115 114 118 0
-39 -40 17 18 19 20 21 22 23 24 25 26 27 28 29 30 31 32 33 34 35 36 37 38 1 -9 119 113 114 115 116 117 112 118 0
19 -1 113 20 21 22 23 24 25 26 27 28 29 30 31 32 18 17 35 33 -39 34 36 37 38 40 9 119 117 112 116 115 114 118 0
40 1 17 18 19 20 21 22 23 24 25 26 27 28 29 30 31 32 33 34 35 36 -39 38 37 9 119 113 114 115 116 117 112 118 0
-23 -137 -37 0
-22 -137 -37 0
-21 -137 -37 0
18 36 137 20 21 22 23 24 25 26 27 28 29 30 31 32 19 17 33 34 35 0
-20 -137 -37 0
-17 -137 -37 0
-19 -137 -37 0
-18 -137 -37 0
-44 -1 20 -43 21 22 23 24 25 26 27 28 29 30 31 32 19 18 17 33 39 35 34 36 38 40 37 41 42 67 -5 70 68 69 0
-44 1 -43 18 19 20 21 22 23 24 25 26 27 28 29 30 31 32 17 34 35 33 36 39 38 40 37 42 41 -5 70 68 67 69 0
20 -1 -43 19 21 22 23 24 25 26 27 28 29 30 31 32 18 17 35 33 39 34 36 37 38 40 41 42 44 67 5 70 68 69 0
44 1 -43 18 19 20 21 22 23 24 25 26 27 28 29 30 31 32 17 34 35 33 36 39 38 40 37 42 41 5 70 68 67 69 0
-79 -3 46 0
-79 -46 3 0
20 38 -3 19 21 22 23 24 25 26 27 28 29 30 31 32 18 17 35 33 39 34 36 37 40 41 -46 -42 -2 79 76 78 77 0
20 19 3 18 21 22 23 24 25 26 27 28 29 30 31 32 17 34 35 33 39 36 37 38 40 41 46 -42 -2 79 76 78 77 0
20 38 47 19 21 22 23 24 25 26 27 28 29 30 31 32 18 17 35 33 39 34 36 37 40 41 -46 -3 -42 79 76 78 77 0
20 19 47 18 21 22 23 24 25 26 27 28 29 30 31 32 17 34 35 33 39 36 37 38 40 41 46 3 -42 79 76 78 77 0
-50 -37 0
-50 -36 0
-50 -35 0
-1 -45 20 43 -44 22 23 24 25 26 27 28 29 30 31 32 21 19 18 33 36 17 35 34 39 40 38 37 42 41 -4 62 60 61 0
-45 1 -44 18 19 20 21 22 23 24 25 26 27 28 29 30 31 32 17 34 35 33 36 39 38 40 37 42 41 43 -4 62 60 61 0
-1 20 -44 45 21 22 23 24 25 26 27 28 29 30 31 32 19 18 17 33 39 35 34 36 37 40 38 41 42 43 4 62 60 61 0
45 -44 17 18 19 20 21 22 23 24 25 26 27 28 29 30 31 32 33 34 35 36 39 38 37 40 41 42 43 4 1 62 60 61 0
39 121 38 0
38 121 -10 0
121 -120 39 0
121 -120 -10 0
-39 -121 -38 120 0
-121 -38 10 120 0
-48 -43 0
-48 -42 0
-48 -41 0
-48 -40 0
-48 -39 0
-48 -38 0
-48 -37 0
-48 -36 0
-48 -35 0
-38 -63 -43 0
-63 -37 -43 0
-43 -63 -36 0
17 18 19 -1 21 22 23 24 25 26 27 28 29 30 31 32 20 34 35 33 36 39 38 40 37 41 42 -46 44 43 45 -2 52 0
-46 1 17 18 19 20 21 22 23 24 25 26 27 28 29 30 31 32 33 34 35 36 39 38 37 40 41 42 43 44 45 -2 52 0
17 18 19 47 21 22 23 24 25 26 27 28 29 30 31 32 20 34 35 33 36 39 38 40 37 41 42 -46 44 43 45 -1 52 0
-46 17 18 19 20 21 22 23 24 25 26 27 28 29 30 31 32 33 34 35 36 39 38 37 40 41 42 43 44 45 1 47 52 0
42 72 43 0
42 72 -6 0
-71 72 43 0
-71 72 -6 0
-72 -42 -43 71 0
-72 6 -42 71 0
-9 40 -176 0
9 -40 -176 0
-39 20 -40 -9 21 22 23 24 25 26 27 28 29 30 31 32 19 17 18 34 35 -36 -10 176 33 172 173 174 167 171 170 169 168 175 0
-39 20 40 9 21 22 23 24 25 26 27 28 29 30 31 32 19 17 18 34 35 -36 -10 176 33 172 173 174 167 171 170 169 168 175 0
39 20 -40 -9 21 22 23 24 25 26 27 28 29 30 31 32 19 17 18 34 35 -36 10 176 33 172 173 174 167 171 170 169 168 175 0
39 20 40 9 21 22 23 24 25 26 27 28 29 30 31 32 19 17 18 34 35 -36 10 176 33 172 173 174 167 171 170 169 168 175 0
-45 20 -2 -1 21 22 23 24 25 26 27 28 29 30 31 32 19 18 17 33 39 35 34 36 37 40 38 41 42 43 44 56 55 0
-45 20 47 -1 21 22 23 24 25 26 27 28 29 30 31 32 19 18 17 33 39 35 34 36 37 40 38 41 42 43 44 56 55 0
-45 1 17 18 19 20 21 22 23 24 25 26 27 28 29 30 31 32 33 34 35 36 39 38 37 40 41 42 43 44 -2 56 55 0
-45 17 18 19 20 21 22 23 24 25 26 27 28 29 30 31 32 33 34 35 36 39 38 37 40 41 42 43 44 1 47 56 55 0
-15 226 33 0
34 226 33 0
-225 226 -15 0
-225 34 226 0
-33 15 225 -226 0
-226 -34 -33 225 0
157 -12 36 0
36 157 37 0
-12 157 -156 35 0
37 157 -156 35 0
156 -157 -36 12 0
-36 -157 12 -35 0
-157 156 -36 -37 0
-35 -157 -37 -36 0
-91 -34 0
-91 -33 0
-91 -32 0
-91 -31 0
1 -3 -51 52 0
-51 -3 -1 52 0
35 201 34 0
-14 201 34 0
201 35 -200 33 0
-14 201 33 -200 0
-201 -34 200 14 0
-201 -34 -33 14 0
-34 -201 200 -35 0
-34 -201 -33 -35 0
40 92 41 0
40 92 -8 0
92 -91 39 41 0
92 39 -8 -91 0
-92 -40 8 91 0
-92 -40 8 -39 0
-40 -92 91 -41 0
-40 -92 -39 -41 0
36 178 35 0
178 35 -13 0
178 -177 34 36 0
178 -177 -13 34 0
-178 -35 177 13 0
-35 -178 -34 13 0
-35 -178 177 -36 0
-35 -178 -34 -36 0
-225 -26 0
-225 -25 0
-225 -24 0
-225 -23 0
-50 -34 0
-50 -33 0
-50 -32 0
-50 -31 0
-39 -33 -104 0
-39 -32 -104 0
-31 -39 -104 0
-30 -104 -39 0
225 19 18 20 21 22 23 24 25 26 27 28 29 30 31 32 17 0
-225 -22 0
-225 -18 0
-225 -21 0
-225 -20 0
-225 -19 0
-225 -17 0
-177 -27 0
-177 -26 0
-177 -25 0
-177 -24 0
-177 -23 0
177 33 19 20 21 22 23 24 25 26 27 28 29 30 31 32 18 17 0
-177 -22 0
-177 -18 0
-177 -21 0
-177 -20 0
-177 -19 0
-177 -17 0
-47 48 1 2 0
-1 2 -47 48 0
-2 -48 49 -1 0
1 -2 -48 49 0
-50 -30 0
-50 -29 0
-50 -28 0
-50 -27 0
-50 -26 0
-50 -25 0
-35 -63 -43 0
-30 -63 -43 0
-34 -63 -43 0
-63 -33 -43 0
-63 -32 -43 0
-31 -63 -43 0
18 39 20 42 21 22 23 24 25 26 27 28 29 30 31 32 17 19 35 33 36 34 37 40 38 41 43 44 45 50 0
-50 -24 0
-50 -18 0
-50 -23 0
-50 -22 0
-50 -21 0
-50 -20 0
-50 -19 0
-50 -17 0
-48 -34 0
-48 -33 0
-48 -32 0
-48 -31 0
-48 -30 0
-48 -29 0
-48 -28 0
-53 -45 -42 0
-53 -39 -45 0
-45 -53 -41 0
-53 -40 -45 0
-45 -53 -38 0
-53 -37 -45 0
-45 -53 -36 0
18 42 20 46 21 22 23 24 25 26 27 28 29 30 31 32 17 19 35 33 36 34 39 40 37 38 41 43 44 45 48 0
-48 -27 0
-48 -18 0
-48 -26 0
-48 -25 0
-48 -24 0
-48 -23 0
-48 -22 0
-48 -21 0
-48 -20 0
-48 -19 0
-48 -17 0
200 19 18 20 21 22 23 24 25 26 27 28 29 30 31 32 17 0
-200 -28 0
-200 -27 0
-200 -26 0
-200 -25 0
-200 -24 0
-200 -23 0
-200 -22 0
-200 -17 0
-200 -21 0
-200 -20 0
-200 -19 0
-200 -18 0
33 36 120 20 21 22 23 24 25 26 27 28 29 30 31 32 19 18 34 35 37 17 0
-120 -28 0
-120 -27 0
-120 -26 0
-120 -25 0
-120 -24 0
-120 -23 0
-120 -22 0
-120 -21 0
-120 -17 0
-120 -20 0
-120 -19 0
-120 -18 0
34 156 20 19 21 22 23 24 25 26 27 28 29 30 31 32 18 33 17 0
-156 -29 0
-156 -18 0
-156 -28 0
-156 -27 0
-156 -26 0
-156 -25 0
-156 -24 0
-156 -23 0
-156 -22 0
-156 -21 0
-156 -20 0
-156 -19 0
-156 -17 0
18 38 19 20 21 22 23 24 25 26 27 28 29 30 31 32 17 34 35 33 36 37 104 0
-104 -39 -29 0
-39 -28 -104 0
-39 -27 -104 0
-26 -39 -104 0
-25 -39 -104 0
-39 -104 -24 0
-23 -104 -39 0
-104 -39 -18 0
-39 -22 -104 0
-21 -104 -39 0
-20 -39 -104 0
-104 -19 -39 0
-39 -104 -17 0
17 38 42 20 21 22 23 24 25 26 27 28 29 30 31 32 19 18 35 33 39 34 36 40 37 41 63 0
-29 -63 -43 0
-63 -17 -43 0
-63 -28 -43 0
-63 -27 -43 0
-63 -26 -43 0
-25 -63 -43 0
-24 -63 -43 0
-63 -23 -43 0
-22 -63 -43 0
-63 -21 -43 0
-63 -20 -43 0
-63 -19 -43 0
-18 -63 -43 0
17 38 20 18 21 22 23 24 25 26 27 28 29 30 31 32 19 34 35 33 36 37 91 0
-91 -30 0
-91 -29 0
-91 -28 0
-91 -27 0
-91 -26 0
-91 -25 0
-91 -24 0
-91 -23 0
-91 -22 0
-91 -21 0
-91 -20 0
-91 -19 0
-91 -18 0
-91 -17 0
19 39 20 38 21 22 23 24 25 26 27 28 29 30 31 32 18 17 35 33 36 34 37 40 80 0
-34 -41 -80 0
-33 -41 -80 0
-41 -32 -80 0
-41 -31 -80 0
-41 -29 -80 0
-30 -41 -80 0
-41 -28 -80 0
-24 -41 -80 0
-41 -27 -80 0
-26 -41 -80 0
-25 -41 -80 0
-41 -23 -80 0
-17 -41 -80 0
-41 -22 -80 0
-21 -41 -80 0
-41 -20 -80 0
-19 -41 -80 0
-18 -41 -80 0
38 19 40 20 21 22 23 24 25 26 27 28 29 30 31 32 18 17 35 33 39 34 36 37 41 42 43 44 53 0
-53 -35 -45 0
-28 -53 -45 0
-34 -53 -45 0
-53 -33 -45 0
-32 -53 -45 0
-53 -31 -45 0
-53 -30 -45 0
-29 -53 -45 0
-18 -53 -45 0
-27 -53 -45 0
-24 -53 -45 0
-53 -26 -45 0
-25 -53 -45 0
-53 -23 -45 0
-17 -53 -45 0
-53 -22 -45 0
-53 -21 -45 0
-53 -20 -45 0
-53 -19 -45 0
17 19 20 38 21 22 23 24 25 26 27 28 29 30 31 32 18 34 35 33 39 36 37 40 41 71 0
-71 -35 0
-71 -34 0
-71 -33 0
-71 -32 0
-71 -31 0
-71 -30 0
-71 -27 0
-71 -29 0
-71 -28 0
-71 -26 0
-71 -22 0
-71 -25 0
-71 -24 0
-71 -23 0
-71 -21 0
-71 -18 0
-71 -20 0
-71 -19 0
-71 -17 0
38 40 19 20 21 22 23 24 25 26 27 28 29 30 31 32 18 17 35 33 39 34 36 37 41 42 43 57 0
-40 -57 -44 0
-57 -39 -44 0
-57 -44 -38 0
-37 -57 -44 0
-57 -44 -36 0
-33 -57 -44 0
-57 -35 -44 0
-57 -34 -44 0
-32 -57 -44 0
-29 -57 -44 0
-57 -31 -44 0
-30 -57 -44 0
-28 -57 -44 0
-57 -27 -44 0
-26 -57 -44 0
-25 -57 -44 0
-24 -57 -44 0
-57 -23 -44 0
-57 -22 -44 0
-57 -21 -44 0
-20 -57 -44 0
-57 -19 -44 0
-57 -18 -44 0
-17 -57 -44 0
51 3 0
-70 186 0
-49 -15 0
-90 162 0
-155 180 0
-154 47 0
1 -2 -14 -188 199 0
-14 -2 -1 -188 199 0
14 -47 2 0
14 188 0
1 -14 47 -188 199 0
47 -188 -14 -1 199 0
1 -7 47 -75 79 0
-75 47 -1 -7 79 0
1 -2 -7 -75 79 0
-2 -7 -1 -75 79 0
7 75 0
2 -47 7 0
15 212 0
15 -47 2 0
1 -15 47 -212 224 0
47 -15 -212 -1 224 0
1 -2 -15 -212 224 0
-2 -15 -212 -1 224 0
1 -6 47 -66 70 0
47 -66 -6 -1 70 0
1 -2 -6 -66 70 0
-2 -6 -1 -66 70 0
6 66 0
2 -47 6 0
-9 -2 -1 -97 103 0
1 -2 -9 -97 103 0
2 -47 9 0
9 97 0
-97 47 -1 -9 103 0
1 -9 47 -97 103 0
1 -2 -16 -238 251 0
-16 -2 -1 -238 251 0
16 238 0
16 -47 2 0
1 -16 47 -238 251 0
47 -16 -238 -1 251 0
-4 -2 -1 -54 56 0
1 -2 -4 -54 56 0
54 4 1 0
-47 2 1 4 0
-54 47 -1 -4 56 0
1 -4 47 -54 56 0
-1 4 54 0
-1 2 4 -47 0
-1 8 85 0
-1 2 8 -47 0
1 -2 -8 -85 90 0
-8 -2 -1 -85 90 0
1 -8 47 -85 90 0
-85 47 -1 -8 90 0
8 85 1 0
8 -47 1 2 0
10 111 1 0
-47 2 1 10 0
-10 -2 -1 -111 119 0
1 -2 -10 -111 119 0
-111 47 -1 -10 119 0
1 -10 47 -111 119 0
-1 10 111 0
-1 2 10 -47 0
13 166 1 0
-47 13 1 2 0
-166 47 -1 -13 176 0
1 -13 47 -166 176 0
-13 -2 -1 -166 176 0
1 -2 -13 -166 176 0
-1 13 166 0
-1 2 13 -47 0
-1 12 146 0
-1 2 12 -47 0
1 -12 47 -146 155 0
-146 47 -1 -12 155 0
1 -2 -12 -146 155 0
-2 -12 -1 -146 155 0
146 12 1 0
-47 12 1 2 0
-5 -2 -1 -59 62 0
1 -2 -5 -59 62 0
5 59 1 0
5 -47 1 2 0
-59 47 -1 -5 62 0
1 -5 47 -59 62 0
-1 5 59 0
-1 2 5 -47 0
1 -11 47 -128 136 0
-128 47 -1 -11 136 0
-1 11 128 0
-1 2 11 -47 0
1 -2 -11 -128 136 0
-11 -2 -1 -128 136 0
11 128 1 0
2 -47 1 11 0
-136 139 0
-118 201 0
-118 166 0
-118 149 0
-61 197 0
-103 207 0
-102 113 0
-90 234 0
54 4 0
10 111 0
166 13 0
-155 204 0
-154 207 0
